(set-logic ALL)
(declare-const a_random2_0 Int)
(declare-fun seed0_c_~a24~0 () Int)
(declare-fun seed0_c_~a21~0 () Int)
(declare-fun |seed0_c_old(~a26~0)| () Int)
(declare-fun seed0_c_~a26~0 () Int)
(declare-fun seed0_c_~a14~0 () Int)
(declare-fun seed0_c_~a28~0 () Int)
(declare-fun seed0_c_calculate_output_~input () Int)
(declare-fun seed0_Q1_v_~a26~0_1267 () Int)
(assert (and (or (or (not (< 124 seed0_c_~a26~0)) (and (not (< 300 seed0_c_~a28~0)) (or (not (<= seed0_c_~a28~0 134)) (not (< 37 seed0_c_~a28~0))) (or (not (< 134 seed0_c_~a28~0)) (not (<= seed0_c_~a28~0 300)))) (not (<= seed0_c_~a26~0 217)) (not (<= (+ seed0_c_~a14~0 114) 0)) (not (= 2 seed0_c_~a24~0)) (not (< 0 (+ seed0_c_~a14~0 182))) (not (= seed0_c_calculate_output_~input 1)) (not (<= seed0_c_~a21~0 127))) (= (mod seed0_c_~a21~0 |seed0_c_old(~a26~0)|) (mod |seed0_c_old(~a26~0)| seed0_c_~a26~0))) (or (and (< 217 seed0_Q1_v_~a26~0_1267 ) (<= 0 (* 9 seed0_Q1_v_~a26~0_1267 )) (<= (+ seed0_c_~a26~0 554854) (div (* 9 seed0_Q1_v_~a26~0_1267 ) 10)) (<= seed0_Q1_v_~a26~0_1267  222)) (and (> (+ seed0_c_~a21~0 seed0_c_~a21~0) (div seed0_c_~a26~0 seed0_c_~a24~0)) (= (- |seed0_c_old(~a26~0)| seed0_c_~a26~0) (- |seed0_c_old(~a26~0)| seed0_c_~a26~0)))) (or (< seed0_c_~a26~0 (+ |seed0_c_old(~a26~0)| a_random2_0)) (=> (>= (- seed0_Q1_v_~a26~0_1267 seed0_Q1_v_~a26~0_1267) (* seed0_Q1_v_~a26~0_1267 seed0_c_~a28~0)) (<= (* seed0_Q1_v_~a26~0_1267 seed0_c_~a21~0) (* seed0_c_~a24~0 seed0_c_~a26~0)))) (or (forall ((seed0_Q2_v_~a26~0_1267 Int)) (or (not (< 217 seed0_Q2_v_~a26~0_1267)) (not (<= 0 (* 9 seed0_Q2_v_~a26~0_1267))) (not (<= seed0_Q2_v_~a26~0_1267 |seed0_c_old(~a26~0)|)) (not (<= (+ seed0_c_~a26~0 554854) (div (* 9 seed0_Q2_v_~a26~0_1267) 10))))) (=> (<= (* seed0_c_~a28~0 |seed0_c_old(~a26~0)|) (+ |seed0_c_old(~a26~0)| seed0_c_~a24~0)) (> (* seed0_c_~a21~0 seed0_c_~a14~0) (+ seed0_c_~a24~0 seed0_c_calculate_output_~input))))))
(assert (> a_random2_0 0))
(check-sat)
(exit)